p cnf 1209
-23 -373
-24 -376
-25 -379
-26 -382
-27 -385
-28 -388
-29 -391
-30 -394
-31 -397
-32 -400
-33 -403
-34 -406
-35 -409
-36 -412
-37 -415
-38 -418
-39 -421
-40 -424
-41 -427
-42 -430
-43 -433
-44 -436
-45 437
-46 438
-47 439
-48 440
-49 -24
-49 -25
24 25 49
-50 -26
-50 -27
26 27 50
-51 -28
-51 -29
28 29 51
-52 -30
-52 -31
30 31 52
-53 -32
-53 -33
32 33 53
-54 -34
-54 -35
34 35 54
-55 -36
-55 -37
36 37 55
-56 -38
-56 -39
38 39 56
-57 -40
-57 -41
40 41 57
-58 -42
-58 -43
42 43 58
-59 -44
-59 -45
44 45 59
-60 -46
-60 -47
46 47 60
-61 49
-61 50
-49 -50 61
-62 51
-62 52
-51 -52 62
-63 53
-63 54
-53 -54 63
-64 55
-64 56
-55 -56 64
-65 57
-65 58
-57 -58 65
-66 59
-66 60
-59 -60 66
-67 61
-67 62
-61 -62 67
-68 63
-68 64
-63 -64 68
-69 65
-69 66
-65 -66 69
-70 67
-70 68
-67 -68 70
-71 -48
-71 69
48 -69 71
-72 70
-72 71
-70 -71 72
-73 -23
-73 24
23 -24 73
-74 23
-74 -24
-23 24 74
-75 -73
-75 -74
73 74 75
-76 23
-76 24
-23 -24 76
-77 -23
-77 -75
23 75 77
-78 23
-78 75
-23 -75 78
-79 -77
-79 -78
77 78 79
-80 23
-80 -75
-23 75 80
-81 -76
-81 -80
76 80 81
-82 -24
-82 25
24 -25 82
-83 24
-83 -25
-24 25 83
-84 -82
-84 -83
82 83 84
-85 24
-85 25
-24 -25 85
-86 81
-86 -84
-81 84 86
-87 -81
-87 84
81 -84 87
-88 -86
-88 -87
86 87 88
-89 -81
-89 -84
81 84 89
-90 -85
-90 -89
85 89 90
-91 -25
-91 26
25 -26 91
-92 25
-92 -26
-25 26 92
-93 -91
-93 -92
91 92 93
-94 25
-94 26
-25 -26 94
-95 90
-95 -93
-90 93 95
-96 -90
-96 93
90 -93 96
-97 -95
-97 -96
95 96 97
-98 -90
-98 -93
90 93 98
-99 -94
-99 -98
94 98 99
-100 -26
-100 27
26 -27 100
-101 26
-101 -27
-26 27 101
-102 -100
-102 -101
100 101 102
-103 26
-103 27
-26 -27 103
-104 99
-104 -102
-99 102 104
-105 -99
-105 102
99 -102 105
-106 -104
-106 -105
104 105 106
-107 -99
-107 -102
99 102 107
-108 -103
-108 -107
103 107 108
-109 -27
-109 28
27 -28 109
-110 27
-110 -28
-27 28 110
-111 -109
-111 -110
109 110 111
-112 27
-112 28
-27 -28 112
-113 108
-113 -111
-108 111 113
-114 -108
-114 111
108 -111 114
-115 -113
-115 -114
113 114 115
-116 -108
-116 -111
108 111 116
-117 -112
-117 -116
112 116 117
-118 -28
-118 29
28 -29 118
-119 28
-119 -29
-28 29 119
-120 -118
-120 -119
118 119 120
-121 28
-121 29
-28 -29 121
-122 117
-122 -120
-117 120 122
-123 -117
-123 120
117 -120 123
-124 -122
-124 -123
122 123 124
-125 -117
-125 -120
117 120 125
-126 -121
-126 -125
121 125 126
-127 -29
-127 30
29 -30 127
-128 29
-128 -30
-29 30 128
-129 -127
-129 -128
127 128 129
-130 29
-130 30
-29 -30 130
-131 126
-131 -129
-126 129 131
-132 -126
-132 129
126 -129 132
-133 -131
-133 -132
131 132 133
-134 -126
-134 -129
126 129 134
-135 -130
-135 -134
130 134 135
-136 -30
-136 31
30 -31 136
-137 30
-137 -31
-30 31 137
-138 -136
-138 -137
136 137 138
-139 30
-139 31
-30 -31 139
-140 135
-140 -138
-135 138 140
-141 -135
-141 138
135 -138 141
-142 -140
-142 -141
140 141 142
-143 -135
-143 -138
135 138 143
-144 -139
-144 -143
139 143 144
-145 -31
-145 32
31 -32 145
-146 31
-146 -32
-31 32 146
-147 -145
-147 -146
145 146 147
-148 31
-148 32
-31 -32 148
-149 144
-149 -147
-144 147 149
-150 -144
-150 147
144 -147 150
-151 -149
-151 -150
149 150 151
-152 -144
-152 -147
144 147 152
-153 -148
-153 -152
148 152 153
-154 -32
-154 33
32 -33 154
-155 32
-155 -33
-32 33 155
-156 -154
-156 -155
154 155 156
-157 32
-157 33
-32 -33 157
-158 153
-158 -156
-153 156 158
-159 -153
-159 156
153 -156 159
-160 -158
-160 -159
158 159 160
-161 -153
-161 -156
153 156 161
-162 -157
-162 -161
157 161 162
-163 -33
-163 34
33 -34 163
-164 33
-164 -34
-33 34 164
-165 -163
-165 -164
163 164 165
-166 33
-166 34
-33 -34 166
-167 162
-167 -165
-162 165 167
-168 -162
-168 165
162 -165 168
-169 -167
-169 -168
167 168 169
-170 -162
-170 -165
162 165 170
-171 -166
-171 -170
166 170 171
-172 -34
-172 35
34 -35 172
-173 34
-173 -35
-34 35 173
-174 -172
-174 -173
172 173 174
-175 34
-175 35
-34 -35 175
-176 171
-176 -174
-171 174 176
-177 -171
-177 174
171 -174 177
-178 -176
-178 -177
176 177 178
-179 -171
-179 -174
171 174 179
-180 -175
-180 -179
175 179 180
-181 -35
-181 36
35 -36 181
-182 35
-182 -36
-35 36 182
-183 -181
-183 -182
181 182 183
-184 35
-184 36
-35 -36 184
-185 180
-185 -183
-180 183 185
-186 -180
-186 183
180 -183 186
-187 -185
-187 -186
185 186 187
-188 -180
-188 -183
180 183 188
-189 -184
-189 -188
184 188 189
-190 -36
-190 37
36 -37 190
-191 36
-191 -37
-36 37 191
-192 -190
-192 -191
190 191 192
-193 36
-193 37
-36 -37 193
-194 189
-194 -192
-189 192 194
-195 -189
-195 192
189 -192 195
-196 -194
-196 -195
194 195 196
-197 -189
-197 -192
189 192 197
-198 -193
-198 -197
193 197 198
-199 -37
-199 38
37 -38 199
-200 37
-200 -38
-37 38 200
-201 -199
-201 -200
199 200 201
-202 37
-202 38
-37 -38 202
-203 198
-203 -201
-198 201 203
-204 -198
-204 201
198 -201 204
-205 -203
-205 -204
203 204 205
-206 -198
-206 -201
198 201 206
-207 -202
-207 -206
202 206 207
-208 -38
-208 39
38 -39 208
-209 38
-209 -39
-38 39 209
-210 -208
-210 -209
208 209 210
-211 38
-211 39
-38 -39 211
-212 207
-212 -210
-207 210 212
-213 -207
-213 210
207 -210 213
-214 -212
-214 -213
212 213 214
-215 -207
-215 -210
207 210 215
-216 -211
-216 -215
211 215 216
-217 -39
-217 40
39 -40 217
-218 39
-218 -40
-39 40 218
-219 -217
-219 -218
217 218 219
-220 39
-220 40
-39 -40 220
-221 216
-221 -219
-216 219 221
-222 -216
-222 219
216 -219 222
-223 -221
-223 -222
221 222 223
-224 -216
-224 -219
216 219 224
-225 -220
-225 -224
220 224 225
-226 -40
-226 41
40 -41 226
-227 40
-227 -41
-40 41 227
-228 -226
-228 -227
226 227 228
-229 40
-229 41
-40 -41 229
-230 225
-230 -228
-225 228 230
-231 -225
-231 228
225 -228 231
-232 -230
-232 -231
230 231 232
-233 -225
-233 -228
225 228 233
-234 -229
-234 -233
229 233 234
-235 -41
-235 42
41 -42 235
-236 41
-236 -42
-41 42 236
-237 -235
-237 -236
235 236 237
-238 41
-238 42
-41 -42 238
-239 234
-239 -237
-234 237 239
-240 -234
-240 237
234 -237 240
-241 -239
-241 -240
239 240 241
-242 -234
-242 -237
234 237 242
-243 -238
-243 -242
238 242 243
-244 -42
-244 43
42 -43 244
-245 42
-245 -43
-42 43 245
-246 -244
-246 -245
244 245 246
-247 42
-247 43
-42 -43 247
-248 243
-248 -246
-243 246 248
-249 -243
-249 246
243 -246 249
-250 -248
-250 -249
248 249 250
-251 -243
-251 -246
243 246 251
-252 -247
-252 -251
247 251 252
-253 -43
-253 44
43 -44 253
-254 43
-254 -44
-43 44 254
-255 -253
-255 -254
253 254 255
-256 43
-256 44
-43 -44 256
-257 252
-257 -255
-252 255 257
-258 -252
-258 255
252 -255 258
-259 -257
-259 -258
257 258 259
-260 -252
-260 -255
252 255 260
-261 -256
-261 -260
256 260 261
-262 -44
-262 45
44 -45 262
-263 44
-263 -45
-44 45 263
-264 -262
-264 -263
262 263 264
-265 44
-265 45
-44 -45 265
-266 261
-266 -264
-261 264 266
-267 -261
-267 264
261 -264 267
-268 -266
-268 -267
266 267 268
-269 -261
-269 -264
261 264 269
-270 -265
-270 -269
265 269 270
-271 -45
-271 46
45 -46 271
-272 45
-272 -46
-45 46 272
-273 -271
-273 -272
271 272 273
-274 45
-274 46
-45 -46 274
-275 270
-275 -273
-270 273 275
-276 -270
-276 273
270 -273 276
-277 -275
-277 -276
275 276 277
-278 -270
-278 -273
270 273 278
-279 -274
-279 -278
274 278 279
-280 -46
-280 47
46 -47 280
-281 46
-281 -47
-46 47 281
-282 -280
-282 -281
280 281 282
-283 46
-283 47
-46 -47 283
-284 279
-284 -282
-279 282 284
-285 -279
-285 282
279 -282 285
-286 -284
-286 -285
284 285 286
-287 -279
-287 -282
279 282 287
-288 -283
-288 -287
283 287 288
-289 -47
-289 48
47 -48 289
-290 47
-290 -48
-47 48 290
-291 -289
-291 -290
289 290 291
-292 47
-292 48
-47 -48 292
-293 288
-293 -291
-288 291 293
-294 -288
-294 291
288 -291 294
-295 -293
-295 -294
293 294 295
-296 -288
-296 -291
288 291 296
-297 -292
-297 -296
292 296 297
-298 23
-298 -79
-23 79 298
-299 -23
-299 25
23 -25 299
-300 -298
-300 -299
298 299 300
-301 23
-301 -88
-23 88 301
-302 -23
-302 26
23 -26 302
-303 -301
-303 -302
301 302 303
-304 23
-304 -97
-23 97 304
-305 -23
-305 27
23 -27 305
-306 -304
-306 -305
304 305 306
-307 23
-307 -106
-23 106 307
-308 -23
-308 28
23 -28 308
-309 -307
-309 -308
307 308 309
-310 23
-310 -115
-23 115 310
-311 -23
-311 29
23 -29 311
-312 -310
-312 -311
310 311 312
-313 23
-313 -124
-23 124 313
-314 -23
-314 30
23 -30 314
-315 -313
-315 -314
313 314 315
-316 23
-316 -133
-23 133 316
-317 -23
-317 31
23 -31 317
-318 -316
-318 -317
316 317 318
-319 23
-319 -142
-23 142 319
-320 -23
-320 32
23 -32 320
-321 -319
-321 -320
319 320 321
-322 23
-322 -151
-23 151 322
-323 -23
-323 33
23 -33 323
-324 -322
-324 -323
322 323 324
-325 23
-325 -160
-23 160 325
-326 -23
-326 34
23 -34 326
-327 -325
-327 -326
325 326 327
-328 23
-328 -169
-23 169 328
-329 -23
-329 35
23 -35 329
-330 -328
-330 -329
328 329 330
-331 23
-331 -178
-23 178 331
-332 -23
-332 36
23 -36 332
-333 -331
-333 -332
331 332 333
-334 23
-334 -187
-23 187 334
-335 -23
-335 37
23 -37 335
-336 -334
-336 -335
334 335 336
-337 23
-337 -196
-23 196 337
-338 -23
-338 38
23 -38 338
-339 -337
-339 -338
337 338 339
-340 23
-340 -205
-23 205 340
-341 -23
-341 39
23 -39 341
-342 -340
-342 -341
340 341 342
-343 23
-343 -214
-23 214 343
-344 -23
-344 40
23 -40 344
-345 -343
-345 -344
343 344 345
-346 23
-346 -223
-23 223 346
-347 -23
-347 41
23 -41 347
-348 -346
-348 -347
346 347 348
-349 23
-349 -232
-23 232 349
-350 -23
-350 42
23 -42 350
-351 -349
-351 -350
349 350 351
-352 23
-352 -241
-23 241 352
-353 -23
-353 43
23 -43 353
-354 -352
-354 -353
352 353 354
-355 23
-355 -250
-23 250 355
-356 -23
-356 44
23 -44 356
-357 -355
-357 -356
355 356 357
-358 23
-358 -259
-23 259 358
-359 -23
-359 45
23 -45 359
-360 -358
-360 -359
358 359 360
-361 23
-361 -268
-23 268 361
-362 -23
-362 46
23 -46 362
-363 -361
-363 -362
361 362 363
-364 23
-364 -277
-23 277 364
-365 -23
-365 47
23 -47 365
-366 -364
-366 -365
364 365 366
-367 23
-367 -286
-23 286 367
-368 -23
-368 48
23 -48 368
-369 -367
-369 -368
367 368 369
-370 23
-370 -295
-23 295 370
-371 1
-371 72
-1 -72 371
-372 -72
-372 73
72 -73 372
-373 -371
-373 -372
371 372 373
-374 2
-374 72
-2 -72 374
-375 -72
-375 -300
72 300 375
-376 -374
-376 -375
374 375 376
-377 3
-377 72
-3 -72 377
-378 -72
-378 -303
72 303 378
-379 -377
-379 -378
377 378 379
-380 4
-380 72
-4 -72 380
-381 -72
-381 -306
72 306 381
-382 -380
-382 -381
380 381 382
-383 5
-383 72
-5 -72 383
-384 -72
-384 -309
72 309 384
-385 -383
-385 -384
383 384 385
-386 6
-386 72
-6 -72 386
-387 -72
-387 -312
72 312 387
-388 -386
-388 -387
386 387 388
-389 7
-389 72
-7 -72 389
-390 -72
-390 -315
72 315 390
-391 -389
-391 -390
389 390 391
-392 8
-392 72
-8 -72 392
-393 -72
-393 -318
72 318 393
-394 -392
-394 -393
392 393 394
-395 9
-395 72
-9 -72 395
-396 -72
-396 -321
72 321 396
-397 -395
-397 -396
395 396 397
-398 10
-398 72
-10 -72 398
-399 -72
-399 -324
72 324 399
-400 -398
-400 -399
398 399 400
-401 11
-401 72
-11 -72 401
-402 -72
-402 -327
72 327 402
-403 -401
-403 -402
401 402 403
-404 12
-404 72
-12 -72 404
-405 -72
-405 -330
72 330 405
-406 -404
-406 -405
404 405 406
-407 13
-407 72
-13 -72 407
-408 -72
-408 -333
72 333 408
-409 -407
-409 -408
407 408 409
-410 14
-410 72
-14 -72 410
-411 -72
-411 -336
72 336 411
-412 -410
-412 -411
410 411 412
-413 15
-413 72
-15 -72 413
-414 -72
-414 -339
72 339 414
-415 -413
-415 -414
413 414 415
-416 16
-416 72
-16 -72 416
-417 -72
-417 -342
72 342 417
-418 -416
-418 -417
416 417 418
-419 17
-419 72
-17 -72 419
-420 -72
-420 -345
72 345 420
-421 -419
-421 -420
419 420 421
-422 18
-422 72
-18 -72 422
-423 -72
-423 -348
72 348 423
-424 -422
-424 -423
422 423 424
-425 19
-425 72
-19 -72 425
-426 -72
-426 -351
72 351 426
-427 -425
-427 -426
425 426 427
-428 20
-428 72
-20 -72 428
-429 -72
-429 -354
72 354 429
-430 -428
-430 -429
428 429 430
-431 21
-431 72
-21 -72 431
-432 -72
-432 -357
72 357 432
-433 -431
-433 -432
431 432 433
-434 22
-434 72
-22 -72 434
-435 -72
-435 -360
72 360 435
-436 -434
-436 -435
434 435 436
-437 -72
-437 -363
72 363 437
-438 -72
-438 -366
72 366 438
-439 -72
-439 -369
72 369 439
-440 -72
-440 370
72 -370 440
-441 -48
-441 297
48 -297 441
-442 23
-442 -441
-23 441 442
442
